&GLOBAL
  PROJECT MWW-001-Al4-Al1
  RUN_TYPE MD
  WALLTIME 47:58:00
  PRINT_LEVEL LOW
&END GLOBAL

&FORCE_EVAL
  METHOD QS
  STRESS_TENSOR ANALYTICAL
  &DFT
    CHARGE 0
    MULTIPLICITY 1
    BASIS_SET_FILE_NAME BASIS_MOLOPT
    POTENTIAL_FILE_NAME GTH_POTENTIALS
    UKS .TRUE.
    &MGRID
      NGRIDS 4
      CUTOFF 450
      REL_CUTOFF 40
    &END MGRID
    &QS
      EPS_DEFAULT 1.0E-10
      METHOD GPW
    &END QS
    &SCF
      SCF_GUESS ATOMIC
      EPS_SCF 1.0E-5
      MAX_SCF 20
      ADDED_MOS 0
      &OT .TRUE.
        MINIMIZER DIIS
        PRECONDITIONER FULL_KINETIC
      &END OT
      &OUTER_SCF .TRUE.
        MAX_SCF 50
      &END OUTER_SCF
      &PRINT
        &RESTART ON
          &EACH
            MD 0
          &END EACH
        &END RESTART
      &END PRINT
    &END SCF
    &POISSON
      PERIODIC XYZ
      POISSON_SOLVER PERIODIC
    &END POISSON
    &XC
      &XC_FUNCTIONAL PBE
      &END XC_FUNCTIONAL
      &VDW_POTENTIAL
        POTENTIAL_TYPE PAIR_POTENTIAL
        &PAIR_POTENTIAL
          R_CUTOFF 15.0
          TYPE DFTD3
          CALCULATE_C9_TERM .FALSE.
          REFERENCE_FUNCTIONAL PBE
          PARAMETER_FILE_NAME dftd3.dat
        &END PAIR_POTENTIAL
      &END VDW_POTENTIAL
      &XC_GRID
        XC_DERIV NN10_SMOOTH
        XC_SMOOTH_RHO NN10
      &END
    &END XC
    &PRINT
      &HIRSHFELD OFF
        FILENAME charge
      &END
      &MULLIKEN OFF
        FILENAME charge
      &END
      &E_DENSITY_CUBE OFF
      &END E_DENSITY_CUBE
    &END PRINT
  &END DFT
  &SUBSYS
    &CELL
      CELL_FILE_FORMAT CIF
      CELL_FILE_NAME start.cif
      &CELL_REF
      CELL_FILE_FORMAT CIF
      CELL_FILE_NAME start.cif
      &END CELL_REF
    &END CELL
    &TOPOLOGY
      CONN_FILE_FORMAT OFF
      COORD_FILE_FORMAT XYZ
      COORD_FILE_NAME start.xyz
    &END TOPOLOGY
    &KIND H
      BASIS_SET DZVP-MOLOPT-SR-GTH-q1
      POTENTIAL GTH-PBE-q1
      MASS 2.014
    &END KIND
    &KIND O
      BASIS_SET DZVP-MOLOPT-SR-GTH-q6
      POTENTIAL GTH-PBE-q6
    &END KIND
    &KIND C
      BASIS_SET DZVP-MOLOPT-SR-GTH-q4
      POTENTIAL GTH-PBE-q4
    &END KIND
    &KIND Al
      BASIS_SET DZVP-MOLOPT-SR-GTH-q3
      POTENTIAL GTH-PBE-q3
    &END KIND
    &KIND Si
      BASIS_SET DZVP-MOLOPT-SR-GTH-q4
      POTENTIAL GTH-PBE-q4
    &END KIND
  &END SUBSYS
&END FORCE_EVAL

&MOTION
  &CONSTRAINT
    &FIXED_ATOMS
      COMPONENTS_TO_FIX xyz
      LIST 81 85
    &END FIXED_ATOMS
  &END CONSTRAINT
  &CELL_OPT
    TYPE DIRECT_CELL_OPT
    MAX_DR    3.0E-03
    MAX_FORCE 3.0E-03
    RMS_DR    3.0E-03
    RMS_FORCE 3.0E-03
    MAX_ITER 20000
    OPTIMIZER LBFGS
  &END CELL_OPT
  &GEO_OPT
    TYPE MINIMIZATION
    MAX_DR    3.0E-03
    MAX_FORCE 3.0E-03
    RMS_DR    3.0E-03
    RMS_FORCE 3.0E-03
    MAX_ITER 20000
    OPTIMIZER LBFGS
  &END GEO_OPT
  &MD
    ENSEMBLE NVT
    STEPS 15000
    TEMPERATURE [K] 450
    TIMESTEP 1.0
    &THERMOSTAT
      REGION GLOBAL
      TYPE CSVR
      &CSVR
        TIMECON [fs] 100
      &END CSVR
    &END THERMOSTAT
  &END MD
  &PRINT
    &CELL
    &END
    &STRESS
    &END
    &FORCES
    &END
    &TRAJECTORY
      FORMAT XYZ
      UNIT ANGSTROM
    &END
    &VELOCITIES
      FORMAT XMOL
    &END
  &END PRINT
&END MOTION

